p cnf 91 377
-4 -61 -63 78 82 84 0
7 8 9 -47 55 64 0
7 8 -47 -48 55 64 0
1 2 24 56 59 0
3 -16 -50 -51 -89 0
7 8 9 -47 55 0
-7 -8 -42 60 -83 0
10 21 22 69 -77 0
11 26 -27 34 57 0
12 13 57 58 79 0
-14 -15 57 58 -73 0
-19 -23 25 30 36 0
20 22 41 53 -54 0
36 37 62 -63 82 0
42 45 46 -55 83 0
57 58 -73 78 -79 0
2 3 24 56 59 0
12 26 -27 34 57 0
52 62 -63 -78 82 0
2 -32 -61 -62 0
2 -61 65 -74 0
-2 -5 -6 35 0
-2 -6 -65 74 0
3 4 16 50 0
3 4 19 -51 0
3 -16 -89 91 0
3 -50 51 -91 0
3 -50 -68 -91 0
-3 -16 -23 67 0
4 5 -78 -84 0
4 23 -51 68 0
-5 -6 35 37 0
-7 -8 -42 -83 0
-7 -8 -46 -83 0
8 9 -47 64 0
-9 -40 43 87 0
10 11 -27 -31 0
10 -21 22 -72 0
11 57 -76 -80 0
12 26 -31 -78 0
13 49 67 91 0
-13 -49 90 -91 0
-13 -85 90 -91 0
-15 29 58 -73 0
-18 -19 -23 -48 0
-18 -19 -38 -64 0
19 -65 74 75 0
-19 25 30 65 0
-20 -22 53 70 0
21 22 -69 88 0
-21 70 -77 88 0
23 39 60 69 0
-29 30 57 -73 0
-30 -31 -37 78 0
-42 45 -60 83 0
46 60 83 -87 0
-48 70 -71 72 0
49 67 85 91 0
51 68 -86 91 0
1 -42 45 60 0
2 -32 59 61 0
7 40 64 -87 0
8 -45 -47 -48 0
10 69 70 -72 0
12 13 -79 84 0
-15 -31 58 -80 0
-16 -23 67 91 0
-19 -23 -51 -81 0
-19 -23 -51 89 0
-19 -23 86 -89 0
20 -38 -54 -70 0
23 51 -85 -91 0
25 33 65 -74 0
26 -27 -28 -33 0
26 -28 31 34 0
-31 58 -78 79 0
-42 70 83 -87 0
52 -61 65 82 0
1 2 42 0
1 42 -83 0
1 -43 45 0
-1 -3 -23 0
-1 8 -70 0
-1 -10 -34 0
-2 -5 84 0
-2 -6 -65 0
3 4 16 0
3 4 24 0
3 -66 -67 0
-3 16 49 0
-3 49 67 0
-3 67 -68 0
-3 -68 -86 0
4 5 -6 0
4 23 -68 0
4 24 -61 0
4 -61 -84 0
5 45 55 0
6 -36 -82 0
6 -65 -82 0
-6 -35 61 0
7 45 46 0
-8 -9 -46 0
-8 10 -60 0
-8 -48 -64 0
10 20 -70 0
11 26 -31 0
-11 -14 76 0
-11 -14 80 0
-12 -78 -79 0
13 49 91 0
13 57 78 0
13 67 91 0
-14 58 78 0
15 -29 30 0
17 19 39 0
17 23 41 0
17 44 -71 0
-17 -19 -77 0
-17 22 -44 0
-17 -40 71 0
18 39 42 0
18 47 64 0
-18 -23 -60 0
-18 -46 -47 0
19 -50 68 0
19 -74 -75 0
-19 26 -34 0
-19 26 -65 0
-19 32 -56 0
-19 -53 -72 0
-19 -69 -72 0
-19 79 84 0
20 -69 -72 0
-20 70 77 0
21 -54 70 0
-21 42 83 0
22 38 -72 0
22 71 -72 0
22 -77 88 0
-22 41 -88 0
23 25 27 0
23 -30 -36 0
23 39 48 0
23 75 -76 0
-23 -24 -26 0
-23 -27 -32 0
-23 -73 79 0
-23 -79 91 0
-23 80 -85 0
24 -35 -59 0
-24 -25 -27 0
25 74 76 0
-25 -36 63 0
-25 -76 -80 0
27 -34 -57 0
29 30 33 0
29 -30 73 0
-30 -33 58 0
-32 59 61 0
35 -56 -59 0
38 39 64 0
-38 -39 -72 0
-39 -44 83 0
-40 -43 46 0
-41 -44 -72 0
-43 44 -77 0
44 -53 77 0
45 55 60 0
-45 -48 55 0
46 -60 -69 0
-46 47 -64 0
-50 66 -89 0
53 -70 72 0
-54 -64 81 0
58 -76 80 0
63 65 82 0
65 74 -82 0
66 86 89 0
-66 86 89 0
-66 -86 -90 0
67 -68 85 0
68 -86 91 0
-68 85 -89 0
-74 -75 76 0
85 -86 91 0
85 -89 91 0
-4 -61 -78 -84 0
1 2 0
1 10 0
1 21 0
1 24 0
1 56 0
1 59 0
1 -62 0
1 -83 0
1 87 0
1 -87 0
1 88 0
-1 -2 0
-1 8 0
-1 24 0
-1 -24 0
-1 -56 0
-1 59 0
-1 78 0
-1 -83 0
-1 -88 0
-1 -90 0
2 3 0
2 5 0
2 6 0
2 61 0
-2 -5 0
-2 35 0
3 27 0
3 40 0
3 50 0
3 56 0
3 59 0
3 -87 0
3 89 0
-3 9 0
-3 -16 0
-3 50 0
-3 51 0
-3 -51 0
-3 78 0
-3 -86 0
-3 90 0
4 -16 0
4 49 0
4 50 0
4 63 0
4 -67 0
4 -85 0
4 89 0
5 -52 0
5 -62 0
5 78 0
5 -82 0
-5 6 0
-5 -74 0
-5 78 0
-5 -78 0
-5 82 0
6 35 0
6 -35 0
-6 29 0
-6 -63 0
7 9 0
7 48 0
7 -48 0
-7 -46 0
-7 -55 0
-7 87 0
8 9 0
8 -42 0
8 -45 0
8 -46 0
8 -57 0
8 86 0
-8 -23 0
-8 48 0
-8 -55 0
-8 -64 0
-8 -70 0
-8 87 0
9 -43 0
9 -47 0
9 55 0
9 -55 0
9 64 0
-9 -45 0
10 12 0
10 -57 0
10 90 0
-10 -11 0
-10 -12 0
-10 15 0
-10 56 0
-10 59 0
-10 70 0
-10 -70 0
11 14 0
11 15 0
11 34 0
11 76 0
-11 31 0
-11 80 0
12 -27 0
12 -31 0
12 37 0
12 85 0
-12 -13 0
-12 31 0
-12 -57 0
-12 73 0
-12 78 0
-12 79 0
13 25 0
13 67 0
13 -78 0
13 90 0
13 -90 0
-13 -47 0
-13 68 0
-13 86 0
14 30 0
14 -57 0
14 58 0
14 -58 0
14 79 0
14 -79 0
-14 79 0
15 31 0
15 -57 0
15 -58 0
-15 57 0
-15 73 0
-15 76 0
16 -19 0
16 50 0
-16 -19 0
-16 -49 0
-16 68 0
17 -40 0
17 77 0
17 -81 0
-17 -18 0
-17 -41 0
-17 44 0
-17 -58 0
18 41 0
18 54 0
18 69 0
-18 -43 0
-18 54 0
-18 -69 0
-18 81 0
19 21 0
19 -33 0
19 34 0
19 -36 0
19 40 0
19 42 0
19 54 0
19 59 0
19 64 0
19 69 0
19 -75 0
19 -80 0
19 85 0
19 -91 0
-19 -24 0
-19 -28 0
-19 37 0
-19 43 0
-19 58 0
-19 65 0
-19 73 0
-19 -79 0
-19 81 0
-19 -84 0
-19 -85 0
-19 89 0
20 21 0
-20 -21 0
-20 -33 0
-20 69 0
-20 72 0
21 23 0
21 -88 0
-21 60 0
-21 -70 0
22 -53 0
-22 53 0
